This is Ipopt version 3.10.0, running with linear solver ma27.

Number of nonzeros in equality constraint Jacobian...:        0
Number of nonzeros in inequality constraint Jacobian.:       48
Number of nonzeros in Lagrangian Hessian.............:        0

Total number of variables............................:        6
                     variables with only lower bounds:        3
                variables with lower and upper bounds:        3
                     variables with only upper bounds:        0
Total number of equality constraints.................:        0
Total number of inequality constraints...............:        8
        inequality constraints with only lower bounds:        0
   inequality constraints with lower and upper bounds:        0
        inequality constraints with only upper bounds:        8

iter    objective    inf_pr   inf_du lg(mu)  ||d||  lg(rg) alpha_du alpha_pr  ls
   0  3.8845117e+00 4.36e+00 1.47e+00   0.0 0.00e+00    -  0.00e+00 0.00e+00   0
   1  4.4201803e+00 2.29e+00 4.32e+00  -1.3 7.22e-01    -  5.87e-01 1.00e+00h  1
   2  6.9146743e+00 9.15e-01 3.28e+00  -0.4 1.26e+00    -  4.46e-01 1.00e+00f  1
   3  6.6462316e+00 9.79e-01 1.57e+00  -1.0 1.60e+00    -  9.79e-01 3.39e-01h  1
   4  6.7843727e+00 6.33e-01 1.31e+00  -1.3 1.38e+00    -  4.77e-01 3.45e-01h  1
   5  7.6818993e+00 3.44e-01 4.54e+00  -1.2 8.37e-01    -  9.83e-01 5.55e-01h  1
   6  9.1321568e+00 1.34e-01 3.89e+00  -1.3 6.87e-01    -  9.96e-01 1.00e+00h  1
   7  9.6667685e+00 5.31e-02 1.63e+00  -1.4 3.76e-01    -  9.96e-01 1.00e+00h  1
   8  9.7180608e+00 2.17e-02 8.71e-01  -2.1 8.04e-02    -  9.99e-01 6.79e-01h  1
   9  9.8164965e+00 3.13e-03 2.60e-01  -3.4 1.02e-01    -  1.00e+00 9.77e-01h  1
iter    objective    inf_pr   inf_du lg(mu)  ||d||  lg(rg) alpha_du alpha_pr  ls
  10  9.8221221e+00 9.44e-04 5.24e-01  -4.5 5.98e-02    -  1.00e+00 1.00e+00h  1
  11  9.8163733e+00 0.00e+00 3.99e-01  -5.8 1.26e-01    -  1.00e+00 1.00e+00h  1
  12  9.7504886e+00 3.46e-02 2.68e+00  -5.5 6.27e+00    -  1.00e+00 1.05e-01f  1
  13  9.7516686e+00 3.00e-02 2.01e+00  -5.6 4.98e-01    -  1.35e-02 1.24e-01h  1
  14  9.8509223e+00 2.21e-03 1.23e+00  -5.6 2.31e-01    -  3.63e-01 1.00e+00h  1
  15  9.1981064e+00 4.78e-01 4.31e+00  -5.6 1.81e+00    -  1.49e-01 1.00e+00f  1
  16  8.9038787e+00 1.70e+00 7.96e+01  -5.6 1.08e+01    -  1.29e-01 2.61e-01h  1
  17  7.2754232e+00 1.75e+00 6.19e+00  -5.6 2.18e+00    -  9.08e-01 1.00e+00h  1
  18  6.7982011e+00 1.57e+00 2.51e+00  -5.6 3.59e+00    -  4.49e-02 1.01e-01h  1
  19  6.4592277e+00 9.48e-01 5.92e+00  -5.6 9.33e-01    -  9.88e-01 8.70e-01h  1
iter    objective    inf_pr   inf_du lg(mu)  ||d||  lg(rg) alpha_du alpha_pr  ls
  20  6.4589931e+00 9.52e-01 5.84e+00  -7.9 8.21e-01    -  8.47e-01 3.47e-06h  1
  21  7.2535759e+00 7.47e-01 1.47e+01  -0.3 1.90e+00    -  2.13e-01 2.86e-01f  1
  22  9.5761267e+00 3.18e-01 1.03e+01  -1.0 1.28e+00    -  1.00e+00 6.56e-01h  1
  23  9.6613870e+00 1.30e-01 6.23e+00  -0.8 4.81e-01    -  8.04e-01 7.45e-01h  1
  24  1.0242052e+01 1.30e-02 3.59e+00  -0.8 2.56e-01    -  1.00e+00 1.00e+00f  1
  25  1.0320653e+01 0.00e+00 1.93e+00  -0.8 1.89e-01    -  1.00e+00 1.00e+00h  1
  26  1.0279305e+01 0.00e+00 1.38e+00  -0.8 1.83e-01    -  1.00e+00 1.00e+00f  1
  27  9.9774668e+00 0.00e+00 4.79e-01  -1.5 9.94e-02    -  1.00e+00 1.00e+00f  1
  28  9.9641846e+00 0.00e+00 1.15e+00  -1.5 4.99e-02    -  1.00e+00 1.00e+00h  1
  29  9.8868506e+00 0.00e+00 7.04e-01  -3.0 4.08e-02    -  1.00e+00 9.66e-01f  1
iter    objective    inf_pr   inf_du lg(mu)  ||d||  lg(rg) alpha_du alpha_pr  ls
  30  9.8686086e+00 0.00e+00 2.02e-01  -2.9 3.48e-02    -  1.00e+00 1.00e+00h  1
  31  9.8655410e+00 1.63e-03 4.13e-01  -2.9 1.72e-02    -  1.00e+00 1.00e+00h  1
  32  9.8815850e+00 0.00e+00 7.23e-01  -2.9 1.58e-02    -  1.00e+00 1.00e+00h  1
  33  9.8576277e+00 5.71e-04 5.30e-01  -2.9 1.47e-02    -  1.00e+00 1.00e+00h  1
  34  9.8576165e+00 2.43e-03 2.77e-01  -4.8 2.64e-03    -  1.00e+00 1.23e-01h  4
  35  9.8734968e+00 5.46e-04 2.29e-01  -4.8 1.41e-02    -  1.00e+00 9.85e-01h  1
  36  9.8506883e+00 1.01e-03 4.16e-01  -5.9 1.52e-03    -  1.00e+00 1.00e+00H  1
  37  9.8595787e+00 1.07e-03 5.66e-01  -6.0 4.39e-03    -  1.00e+00 1.00e+00h  1
  38  9.8708648e+00 1.56e-03 6.63e-01  -6.0 3.48e-03    -  1.00e+00 1.00e+00H  1
  39  9.8788827e+00 0.00e+00 6.51e-01  -6.0 1.86e-03    -  1.00e+00 1.00e+00H  1

Number of Iterations....: 39

                                   (scaled)                 (unscaled)
Objective...............:   9.8788826728083450e+00    9.8788826728083450e+00
Dual infeasibility......:   6.5119066165392403e-01    6.5119066165392403e-01
Constraint violation....:   0.0000000000000000e+00    0.0000000000000000e+00
Complementarity.........:   1.0742789993694802e-06    1.0742789993694802e-06
Overall NLP error.......:   6.5119066165392403e-01    6.5119066165392403e-01


Number of objective function evaluations             = 48
Number of objective gradient evaluations             = 40
Number of equality constraint evaluations            = 0
Number of inequality constraint evaluations          = 48
Number of equality constraint Jacobian evaluations   = 0
Number of inequality constraint Jacobian evaluations = 40
Number of Lagrangian Hessian evaluations             = 0
Total CPU secs in IPOPT (w/o function evaluations)   =      0.101
Total CPU secs in NLP function evaluations           =   1665.386

EXIT: Stopping optimization at current point as requested by user.
